************************************************************************
file with basedata            : n/a
initial value random generator: n/a
************************************************************************
projects                      :  1
jobs (incl. supersource/sink ):  32
horizon                       :  147
RESOURCES
  - renewable                 :  4   R
  - nonrenewable              :  0   N
  - doubly constrained        :  0   D
************************************************************************
PROJECT INFORMATION:
pronr.  #jobs rel.date duedate tardcost  MPM-Time
    1     30      0       44       22       44
************************************************************************
PRECEDENCE RELATIONS:
jobnr.    #modes  #successors   successors
   1        1          3           2   3   4
   2        1          3           7  12  13
   3        1          3           5   6   8
   4        1          1          21
   5        1          2          10  18
   6        1          3          11  16  22
   7        1          1          15
   8        1          2           9  14
   9        1          1          29
  10        1          1          30
  11        1          3          19  24  25
  12        1          1          31
  13        1          3          15  26  27
  14        1          1          20
  15        1          1          18
  16        1          2          17  29
  17        1          1          21
  18        1          1          23
  19        1          2          20  28
  20        1          1          29
  21        1          2          24  30
  22        1          1          25
  23        1          1          30
  24        1          1          28
  25        1          1          26
  26        1          1          28
  27        1          1          31
  28        1          1          31
  29        1          1          32
  30        1          1          32
  31        1          1          32
  32        1          0        
************************************************************************
REQUESTS/DURATIONS:
jobnr. mode duration  R 1  R 2  R 3  R 4
------------------------------------------------------------------------
  1      1     0    
  2      1     2       9   9
                       9   9
                       4   4
                       1   1
  3      1     1       9
                       9
                      10
                       5
  4      1     4       4   4   4   4
                       8   8   8   8
                       6   6   6   6
                       3   3   3   3
  5      1    10       6   6   6   6   6   6   6   6   6   6
                      10  10  10  10  10  10  10  10  10  10
                       7   7   7   7   7   7   7   7   7   7
                       2   2   2   2   2   2   2   2   2   2
  6      1    10       5  10  10  10  10  10  10  10  10  10
                       4   8   8   8   8   8   8   8   8   8
                       5   9   9   9   9   9   9   9   9   9
                       1   2   2   2   2   2   2   2   2   2
  7      1     1       2
                       1
                       5
                       3
  8      1     1       6
                       1
                       7
                       2
  9      1     4       6   6   6   6
                       2   2   2   2
                       4   4   4   4
                       9   9   9   9
 10      1    10       1   1   1   1   1   1   1   1   1   1
                       3   3   3   3   3   3   3   3   3   3
                       6   6   6   6   6   6   6   6   6   6
                       9   9   9   9   9   9   9   9   9   9
 11      1     3       1   1   1
                       4   4   4
                       9   9   9
                       2   2   2
 12      1     1      10
                      10
                       9
                       2
 13      1     2       5   5
                       4   4
                       1   1
                       3   3
 14      1     3      10  10  10
                       1   1   1
                       2   2   2
                       3   3   3
 15      1    10       6   6   6   6   3   6   6   6   6   6
                       2   2   2   2   1   2   2   2   2   2
                       2   2   2   2   1   2   2   2   2   2
                       4   4   4   4   2   4   4   4   4   4
 16      1     3       5   5   5
                       3   3   3
                       1   1   1
                       5   5   5
 17      1     4      10  10  10  10
                       9   9   9   9
                       9   9   9   9
                      10  10  10  10
 18      1    10       4   2   4   4   4   4   4   4   4   4
                      10   5  10  10  10  10  10  10  10  10
                       7   4   7   7   7   7   7   7   7   7
                       4   2   4   4   4   4   4   4   4   4
 19      1     5       3   3   3   3   2
                       6   6   6   6   3
                       2   2   2   2   1
                       8   8   8   8   4
 20      1     5       1   1   1   1   1
                       3   3   3   3   3
                       5   5   5   5   5
                       4   4   4   4   4
 21      1     1       1
                       5
                       3
                       2
 22      1     6       4   4   4   4   4   4
                       8   8   8   8   8   8
                      10  10  10  10  10  10
                       1   1   1   1   1   1
 23      1     2       3   3
                       7   7
                       2   2
                       7   7
 24      1     4       4   8   8   8
                       1   1   1   1
                       4   7   7   7
                       3   5   5   5
 25      1     8       5   5   3   5   5   5   5   5
                       8   8   4   8   8   8   8   8
                       9   9   5   9   9   9   9   9
                       7   7   4   7   7   7   7   7
 26      1     5       2   2   2   2   2
                       6   6   6   6   6
                       4   4   4   4   4
                       2   2   2   2   2
 27      1     4       4   7   7   7
                       2   3   3   3
                       1   1   1   1
                       1   1   1   1
 28      1    10       5   5   3   5   5   5   5   5   5   3
                       1   1   1   1   1   1   1   1   1   1
                       6   6   3   6   6   6   6   6   6   3
                       3   3   2   3   3   3   3   3   3   2
 29      1    10       1   1   1   1   1   1   1   1   1   1
                       7   7   7   7   7   7   7   4   7   7
                       8   8   8   8   8   8   8   4   8   8
                       8   8   8   8   8   8   8   4   8   8
 30      1     4       7   7   7   7
                       2   2   2   2
                       5   5   5   5
                       3   3   3   3
 31      1     4       7   7   4   7
                       4   4   2   4
                       5   5   3   5
                      10  10   5  10
 32      1     0    
************************************************************************
RESOURCEAVAILABILITIES:
  R 1  R 2  R 3  R 4

  27  54  54  27  54  27  54  54  27  54  54  54  27  54  54  54  54  54  54  54  27  54  54  54  54  27  27  54  54  54  54  54  54  54  54  54  54  54  27  54  27  54  54  27  54  54  54  54  54  54  54  54  54  54  27  54  54  54  54  54  54  54  54  54  54  54  54  54  54  54  54  54  54  54  54  54  54  54  54  54  27  54  27  54  54  54  54  54  54  27  54  54  54  54  54  54  54  27  54  54  54  54  27  27  54  54  54  54  54  54  54  54  54  54  54  54  54  54  54  54  54  54  54  54  54  54  54  27  54  54  54  54  54  54  54  54  54  54  54  54  54  54  54  54  54  27  54

  23  45  45  23  45  23  45  45  23  45  45  45  23  45  45  45  45  45  45  45  23  45  45  45  45  23  23  45  45  45  45  45  45  45  45  45  45  45  23  45  23  45  45  23  45  45  45  45  45  45  45  45  45  45  23  45  45  45  45  45  45  45  45  45  45  45  45  45  45  45  45  45  45  45  45  45  45  45  45  45  23  45  23  45  45  45  45  45  45  23  45  45  45  45  45  45  45  23  45  45  45  45  23  23  45  45  45  45  45  45  45  45  45  45  45  45  45  45  45  45  45  45  45  45  45  45  45  23  45  45  45  45  45  45  45  45  45  45  45  45  45  45  45  45  45  23  45

  24  48  48  24  48  24  48  48  24  48  48  48  24  48  48  48  48  48  48  48  24  48  48  48  48  24  24  48  48  48  48  48  48  48  48  48  48  48  24  48  24  48  48  24  48  48  48  48  48  48  48  48  48  48  24  48  48  48  48  48  48  48  48  48  48  48  48  48  48  48  48  48  48  48  48  48  48  48  48  48  24  48  24  48  48  48  48  48  48  24  48  48  48  48  48  48  48  24  48  48  48  48  24  24  48  48  48  48  48  48  48  48  48  48  48  48  48  48  48  48  48  48  48  48  48  48  48  24  48  48  48  48  48  48  48  48  48  48  48  48  48  48  48  48  48  24  48

  19  38  38  19  38  19  38  38  19  38  38  38  19  38  38  38  38  38  38  38  19  38  38  38  38  19  19  38  38  38  38  38  38  38  38  38  38  38  19  38  19  38  38  19  38  38  38  38  38  38  38  38  38  38  19  38  38  38  38  38  38  38  38  38  38  38  38  38  38  38  38  38  38  38  38  38  38  38  38  38  19  38  19  38  38  38  38  38  38  19  38  38  38  38  38  38  38  19  38  38  38  38  19  19  38  38  38  38  38  38  38  38  38  38  38  38  38  38  38  38  38  38  38  38  38  38  38  19  38  38  38  38  38  38  38  38  38  38  38  38  38  38  38  38  38  19  38

************************************************************************
